34082.0
1 0 1 1 1 1 1 1 1 0 1 1 1 1 1 0 0 1 0 1 0 1 1 1 1 1 1 1 1 0 
7 19 2 27 2 12 21 27 22 28 4 28 13 13 28 7 3 10 22 0 27 24 5 24 10 27 27 19 4 2 19 19 4 21 27 6 8 8 24 21 7 8 6 4 8 19 13 21 19 14 24 24 24 21 8 6 11 26 22 25 4 0 7 8 13 11 5 14 28 25 7 12 19 8 23 23 10 23 8 24 10 0 26 25 4 13 6 5 27 7 28 6 25 25 2 3 11 6 0 28 28 21 25 7 4 0 4 24 22 3 19 4 27 12 12 8 28 7 17 8 26 11 17 19 26 21 2 11 26 17 28 24 25 10 23 8 3 3 28 10 12 22 11 11 25 5 24 21 27 25 24 17 23 0 8 11 2 21 3 13 13 27 10 24 5 27 5 4 3 21 5 8 19 14 26 2 0 10 4 10 5 21 2 19 12 8 28 23 0 21 2 21 6 4 7 12 7 21 10 19 